c FILE /home/rafael/Documents/HappySet/MIHS/inputs/happygen/output/graph_scale_free_k3_p0.5_v100_20241127_083819.txt
c SOURCE This is a scale-free graph formed for the happy graph colouring problem.
c DESCRIPTION It was generated using the problem generator of Rhyd Lewis
c
c GRAPH STATS
c Seed                             = 1397154839
c Number of Nodes                  = 100
c Number of colours k              = 3
c Number of pre-assignments        = 50
c Number of links per new node     = 5
c Density                          = 0.0979798
c 
c The degrees of nodes 1 to 100, respectively, are as follows 
c [34, 31, 31, 29, 29, 24, 23, 21, 21, 20, 20, 20, 19, 19, 18, 17, 16, 15, 13, 13, 12, 12, 11, 11, 10, 10, 
c  10, 9, 9, 9, 9, 9, 9, 9, 8, 8, 8, 8, 8, 8, 8, 8, 8, 8, 8, 7, 7, 7, 7, 7, 7, 
c  7, 7, 6, 6, 6, 6, 6, 6, 6, 6, 6, 6, 6, 6, 6, 6, 6, 6, 6, 6, 6, 5, 5, 5, 5, 
c  5, 5, 5, 5, 5, 5, 5, 5, 5, 5, 5, 5, 5, 5, 5, 5, 5, 5, 5, 5, 5, 5, 5, 5] 
c  
p edge 100 485 3
e 1 2
e 1 4
e 1 5
e 1 7
e 1 8
e 1 10
e 1 12
e 1 14
e 1 16
e 1 22
e 1 23
e 1 25
e 1 27
e 1 28
e 1 29
e 1 30
e 1 36
e 1 39
e 1 40
e 1 42
e 1 50
e 1 51
e 1 54
e 1 56
e 1 60
e 1 61
e 1 62
e 1 64
e 1 68
e 1 74
e 1 79
e 1 94
e 1 98
e 1 99
e 2 3
e 2 4
e 2 5
e 2 6
e 2 8
e 2 9
e 2 10
e 2 11
e 2 12
e 2 17
e 2 18
e 2 21
e 2 26
e 2 28
e 2 30
e 2 37
e 2 38
e 2 41
e 2 43
e 2 44
e 2 47
e 2 49
e 2 53
e 2 55
e 2 72
e 2 81
e 2 82
e 2 83
e 2 91
e 2 96
e 3 4
e 3 5
e 3 6
e 3 8
e 3 9
e 3 11
e 3 12
e 3 14
e 3 16
e 3 17
e 3 25
e 3 29
e 3 34
e 3 35
e 3 40
e 3 45
e 3 50
e 3 56
e 3 58
e 3 65
e 3 67
e 3 69
e 3 73
e 3 76
e 3 77
e 3 83
e 3 84
e 3 86
e 3 88
e 3 90
e 4 5
e 4 6
e 4 8
e 4 9
e 4 10
e 4 11
e 4 13
e 4 14
e 4 15
e 4 19
e 4 21
e 4 25
e 4 28
e 4 33
e 4 40
e 4 41
e 4 45
e 4 49
e 4 57
e 4 58
e 4 65
e 4 67
e 4 71
e 4 86
e 4 93
e 4 97
e 5 6
e 5 8
e 5 9
e 5 10
e 5 11
e 5 13
e 5 14
e 5 18
e 5 28
e 5 33
e 5 34
e 5 41
e 5 53
e 5 54
e 5 57
e 5 59
e 5 60
e 5 66
e 5 67
e 5 80
e 5 83
e 5 85
e 5 94
e 5 96
e 5 97
e 6 8
e 6 12
e 6 17
e 6 21
e 6 26
e 6 30
e 6 36
e 6 39
e 6 43
e 6 54
e 6 65
e 6 70
e 6 73
e 6 75
e 6 79
e 6 81
e 6 89
e 6 91
e 6 93
e 6 95
e 7 10
e 7 11
e 7 12
e 7 13
e 7 20
e 7 22
e 7 27
e 7 33
e 7 34
e 7 35
e 7 36
e 7 40
e 7 42
e 7 44
e 7 47
e 7 50
e 7 55
e 7 59
e 7 61
e 7 64
e 7 71
e 7 75
e 8 9
e 8 10
e 8 13
e 8 16
e 8 21
e 8 22
e 8 23
e 8 27
e 8 28
e 8 46
e 8 56
e 8 66
e 8 75
e 8 83
e 8 94
e 9 10
e 9 11
e 9 15
e 9 23
e 9 24
e 9 29
e 9 33
e 9 38
e 9 43
e 9 51
e 9 60
e 9 63
e 9 77
e 9 84
e 9 89
e 9 92
e 10 13
e 10 15
e 10 17
e 10 24
e 10 25
e 10 43
e 10 45
e 10 48
e 10 51
e 10 62
e 10 88
e 10 98
e 10 100
e 11 12
e 11 13
e 11 14
e 11 23
e 11 25
e 11 26
e 11 29
e 11 30
e 11 32
e 11 35
e 11 48
e 11 68
e 11 86
e 11 91
e 12 15
e 12 20
e 12 22
e 12 27
e 12 34
e 12 47
e 12 48
e 12 54
e 12 62
e 12 70
e 12 76
e 12 78
e 12 79
e 12 89
e 13 16
e 13 19
e 13 21
e 13 32
e 13 36
e 13 39
e 13 46
e 13 55
e 13 59
e 13 80
e 13 86
e 13 87
e 13 99
e 14 18
e 14 19
e 14 26
e 14 31
e 14 32
e 14 38
e 14 42
e 14 46
e 14 52
e 14 58
e 14 69
e 14 73
e 14 80
e 14 81
e 15 16
e 15 21
e 15 24
e 15 29
e 15 46
e 15 59
e 15 62
e 15 68
e 15 74
e 15 76
e 15 82
e 15 88
e 15 93
e 15 98
e 16 20
e 16 24
e 16 27
e 16 39
e 16 41
e 16 58
e 16 61
e 16 70
e 16 78
e 16 93
e 16 95
e 16 98
e 17 18
e 17 20
e 17 21
e 17 31
e 17 47
e 17 49
e 17 54
e 17 65
e 17 72
e 17 75
e 17 77
e 17 100
e 18 25
e 18 30
e 18 31
e 18 35
e 18 42
e 18 48
e 18 55
e 18 56
e 18 84
e 18 88
e 18 95
e 19 21
e 19 28
e 19 37
e 19 38
e 19 50
e 19 70
e 19 73
e 19 74
e 19 78
e 19 87
e 20 32
e 20 33
e 20 36
e 20 38
e 20 39
e 20 52
e 20 79
e 20 91
e 20 100
e 21 37
e 21 57
e 21 74
e 21 90
e 22 26
e 22 34
e 22 46
e 22 53
e 22 64
e 22 82
e 22 85
e 22 99
e 23 35
e 23 45
e 23 62
e 23 69
e 23 74
e 23 75
e 23 98
e 24 29
e 24 44
e 24 56
e 24 57
e 24 66
e 24 77
e 24 91
e 25 35
e 25 37
e 25 61
e 25 73
e 26 28
e 26 31
e 26 47
e 26 65
e 26 76
e 27 49
e 27 52
e 27 57
e 27 64
e 27 84
e 28 32
e 28 92
e 29 48
e 29 55
e 29 81
e 30 61
e 30 63
e 30 79
e 30 81
e 31 40
e 31 51
e 31 54
e 31 63
e 31 69
e 32 59
e 32 78
e 32 82
e 32 89
e 33 45
e 33 58
e 33 72
e 33 99
e 34 41
e 34 44
e 34 67
e 34 71
e 35 36
e 35 90
e 36 37
e 36 87
e 37 42
e 37 72
e 37 76
e 38 60
e 38 85
e 38 93
e 39 80
e 39 82
e 39 100
e 40 52
e 40 80
e 40 95
e 41 63
e 41 77
e 41 83
e 42 52
e 42 64
e 42 85
e 43 49
e 43 51
e 43 92
e 43 96
e 44 53
e 44 55
e 44 63
e 44 72
e 45 68
e 45 89
e 45 100
e 46 85
e 46 99
e 47 50
e 47 69
e 48 49
e 48 78
e 49 86
e 50 87
e 50 88
e 51 71
e 51 97
e 52 84
e 52 95
e 53 61
e 53 67
e 53 90
e 56 70
e 57 60
e 58 71
e 59 90
e 60 87
e 62 66
e 63 94
e 64 66
e 65 68
e 66 97
e 67 92
e 68 96
e 69 92
e 70 94
e 71 96
e 72 97
n 2 3
n 9 3
n 22 3
n 24 3
n 27 1
n 30 3
n 31 2
n 32 1
n 36 3
n 37 3
n 38 3
n 39 2
n 42 3
n 44 3
n 46 3
n 48 1
n 50 1
n 54 2
n 56 3
n 58 2
n 59 1
n 60 3
n 61 3
n 62 2
n 65 1
n 67 1
n 68 1
n 69 2
n 70 3
n 71 2
n 73 2
n 74 3
n 76 3
n 77 3
n 78 1
n 79 3
n 80 2
n 83 3
n 85 3
n 86 1
n 88 1
n 90 1
n 91 3
n 93 3
n 94 3
n 95 1
n 97 2
n 98 1
n 99 3
n 100 2
